n=30;
demand=2;
horizon=30;
est=[9,27,11,0,0,11,11,29,14,11,5,26,16,22,15,3,29,9,16,22,23,0,11,11,3,8,27,18,21,12];
processing_time=[20,3,18,30,2,6,3,1,8,17,2,4,2,5,5,18,1,12,9,8,4,3,10,9,21,15,1,4,9,2];
lct=[30,30,30,30,29,25,16,30,24,30,30,30,28,28,27,28,30,27,25,30,27,13,25,20,26,30,28,29,30,25];
